Minimize
 obj: 1 T
Subject To
 c1: -1 b_1 - 0.7133045382333859 z_1 <= 0
 c2: -1 b_2 - 0.7133045382333859 z_2 <= 0
 c3: -1 b_3 - 0.7133045382333859 z_3 <= 0
 c4: -1 b_4 - 0.7133045382333859 z_4 <= 0
 c5: -1 b_5 - 0.7133045382333859 z_5 <= 0
 c6: -1 b_6 - 0.7133045382333859 z_6 <= 0
 c7: -1 b_7 - 0.7133045382333859 z_7 <= 0
 c8: -1 b_8 - 0.7133045382333859 z_8 <= 0
 c9: -1 b_9 - 0.7133045382333859 z_9 <= 0
 c10: -1 b_10 - 0.7133045382333859 z_10 <= 0
 c11: -1 b_11 - 0.7133045382333859 z_11 <= 0
 c12: -1 b_12 - 0.7133045382333859 z_12 <= 0
 c13: -1 b_13 - 0.7133045382333859 z_13 <= 0
 c14: -1 b_14 - 0.7133045382333859 z_14 <= 0
 c15: -1 b_15 - 0.7133045382333859 z_15 <= 0
 c16: -1 b_16 - 0.7133045382333859 z_16 <= 0
 c17: -1 b_17 - 0.7133045382333859 z_17 <= 0
 c18: -1 b_18 - 0.7133045382333859 z_18 <= 0
 c19: -1 b_19 - 0.7133045382333859 z_19 <= 0
 c20: -1 b_20 - 0.7133045382333859 z_20 <= 0
 c21: -1 b_21 - 0.7133045382333859 z_21 <= 0
 c22: -1 b_22 - 0.7133045382333859 z_22 <= 0
 c23: -1 b_23 - 0.7133045382333859 z_23 <= 0
 c24: -1 b_24 - 0.7133045382333859 z_24 <= 0
 c25: 1 b_1 - 0.7133045382333859 z_1 <= 0
 c26: 1 b_2 - 0.7133045382333859 z_2 <= 0
 c27: 1 b_3 - 0.7133045382333859 z_3 <= 0
 c28: 1 b_4 - 0.7133045382333859 z_4 <= 0
 c29: 1 b_5 - 0.7133045382333859 z_5 <= 0
 c30: 1 b_6 - 0.7133045382333859 z_6 <= 0
 c31: 1 b_7 - 0.7133045382333859 z_7 <= 0
 c32: 1 b_8 - 0.7133045382333859 z_8 <= 0
 c33: 1 b_9 - 0.7133045382333859 z_9 <= 0
 c34: 1 b_10 - 0.7133045382333859 z_10 <= 0
 c35: 1 b_11 - 0.7133045382333859 z_11 <= 0
 c36: 1 b_12 - 0.7133045382333859 z_12 <= 0
 c37: 1 b_13 - 0.7133045382333859 z_13 <= 0
 c38: 1 b_14 - 0.7133045382333859 z_14 <= 0
 c39: 1 b_15 - 0.7133045382333859 z_15 <= 0
 c40: 1 b_16 - 0.7133045382333859 z_16 <= 0
 c41: 1 b_17 - 0.7133045382333859 z_17 <= 0
 c42: 1 b_18 - 0.7133045382333859 z_18 <= 0
 c43: 1 b_19 - 0.7133045382333859 z_19 <= 0
 c44: 1 b_20 - 0.7133045382333859 z_20 <= 0
 c45: 1 b_21 - 0.7133045382333859 z_21 <= 0
 c46: 1 b_22 - 0.7133045382333859 z_22 <= 0
 c47: 1 b_23 - 0.7133045382333859 z_23 <= 0
 c48: 1 b_24 - 0.7133045382333859 z_24 <= 0
 c49: 1 z_1 + 1 z_2 + 1 z_3 + 1 z_4 + 1 z_5 + 1 z_6 + 1 z_7 + 1 z_8 + 1 z_9 + 1 z_10 + 1 z_11 + 1 z_12 + 1 z_13 + 1 z_14 + 1 z_15 + 1 z_16 + 1 z_17 + 1 z_18 + 1 z_19 + 1 z_20 + 1 z_21 + 1 z_22 + 1 z_23 + 1 z_24 <= 4
 c50: 1 z_1 + 1 z_7 <= 1
 c51: 1 z_1 + 1 z_13 <= 1
 c52: 1 z_1 + 1 z_19 <= 1
 c53: 1 z_2 + 1 z_3 <= 1
 c54: 1 z_2 + 1 z_8 <= 1
 c55: 1 z_2 + 1 z_9 <= 1
 c56: 1 z_2 + 1 z_11 <= 1
 c57: 1 z_2 + 1 z_20 <= 1
 c58: 1 z_3 + 1 z_2 <= 1
 c59: 1 z_3 + 1 z_9 <= 1
 c60: 1 z_3 + 1 z_15 <= 1
 c61: 1 z_3 + 1 z_20 <= 1
 c62: 1 z_3 + 1 z_21 <= 1
 c63: 1 z_4 + 1 z_10 <= 1
 c64: 1 z_4 + 1 z_22 <= 1
 c65: 1 z_5 + 1 z_11 <= 1
 c66: 1 z_5 + 1 z_17 <= 1
 c67: 1 z_5 + 1 z_23 <= 1
 c68: 1 z_6 + 1 z_12 <= 1
 c69: 1 z_6 + 1 z_18 <= 1
 c70: 1 z_6 + 1 z_24 <= 1
 c71: 1 z_7 + 1 z_1 <= 1
 c72: 1 z_7 + 1 z_19 <= 1
 c73: 1 z_8 + 1 z_2 <= 1
 c74: 1 z_8 + 1 z_9 <= 1
 c75: 1 z_8 + 1 z_11 <= 1
 c76: 1 z_9 + 1 z_2 <= 1
 c77: 1 z_9 + 1 z_3 <= 1
 c78: 1 z_9 + 1 z_8 <= 1
 c79: 1 z_10 + 1 z_4 <= 1
 c80: 1 z_11 + 1 z_2 <= 1
 c81: 1 z_11 + 1 z_5 <= 1
 c82: 1 z_11 + 1 z_8 <= 1
 c83: 1 z_12 + 1 z_6 <= 1
 c84: 1 z_13 + 1 z_1 <= 1
 c85: 1 z_13 + 1 z_19 <= 1
 c86: 1 z_14 + 1 z_20 <= 1
 c87: 1 z_15 + 1 z_3 <= 1
 c88: 1 z_15 + 1 z_21 <= 1
 c89: 1 z_16 + 1 z_22 <= 1
 c90: 1 z_17 + 1 z_5 <= 1
 c91: 1 z_17 + 1 z_23 <= 1
 c92: 1 z_18 + 1 z_6 <= 1
 c93: 1 z_18 + 1 z_24 <= 1
 c94: 1 z_19 + 1 z_1 <= 1
 c95: 1 z_19 + 1 z_7 <= 1
 c96: 1 z_19 + 1 z_13 <= 1
 c97: 1 z_20 + 1 z_2 <= 1
 c98: 1 z_20 + 1 z_3 <= 1
 c99: 1 z_20 + 1 z_14 <= 1
 c100: 1 z_21 + 1 z_3 <= 1
 c101: 1 z_21 + 1 z_15 <= 1
 c102: 1 z_22 + 1 z_4 <= 1
 c103: 1 z_22 + 1 z_16 <= 1
 c104: 1 z_23 + 1 z_5 <= 1
 c105: 1 z_23 + 1 z_17 <= 1
 c106: 1 z_24 + 1 z_6 <= 1
 c107: 1 z_24 + 1 z_18 <= 1
 c108: 1 z_1 + 1 z_7 + 1 z_13 + 1 z_19 <= 1
 c109: 1 z_2 + 1 z_8 + 1 z_14 + 1 z_20 <= 1
 c110: 1 z_3 + 1 z_9 + 1 z_15 + 1 z_21 <= 1
 c111: 1 z_4 + 1 z_10 + 1 z_16 + 1 z_22 <= 1
 c112: 1 z_5 + 1 z_11 + 1 z_17 + 1 z_23 <= 1
 c113: 1 z_6 + 1 z_12 + 1 z_18 + 1 z_24 <= 1
Bounds
 b_1 free
 b_2 free
 b_3 free
 b_4 free
 b_5 free
 b_6 free
 b_7 free
 b_8 free
 b_9 free
 b_10 free
 b_11 free
 b_12 free
 b_13 free
 b_14 free
 b_15 free
 b_16 free
 b_17 free
 b_18 free
 b_19 free
 b_20 free
 b_21 free
 b_22 free
 b_23 free
 b_24 free
 T free
 0 <= z_1 <= 1
 0 <= z_2 <= 1
 0 <= z_3 <= 1
 0 <= z_4 <= 1
 0 <= z_5 <= 1
 0 <= z_6 <= 1
 0 <= z_7 <= 1
 0 <= z_8 <= 1
 0 <= z_9 <= 1
 0 <= z_10 <= 1
 0 <= z_11 <= 1
 0 <= z_12 <= 1
 0 <= z_13 <= 1
 0 <= z_14 <= 1
 0 <= z_15 <= 1
 0 <= z_16 <= 1
 0 <= z_17 <= 1
 0 <= z_18 <= 1
 0 <= z_19 <= 1
 0 <= z_20 <= 1
 0 <= z_21 <= 1
 0 <= z_22 <= 1
 0 <= z_23 <= 1
 0 <= z_24 <= 1
General
 z_1
 z_2
 z_3
 z_4
 z_5
 z_6
 z_7
 z_8
 z_9
 z_10
 z_11
 z_12
 z_13
 z_14
 z_15
 z_16
 z_17
 z_18
 z_19
 z_20
 z_21
 z_22
 z_23
 z_24
End
